c This Formular is generated by mcnf
c
c    horn? no 
c    forced? no 
c    mixed sat? no 
c    clause length = 3 
c
p cnf 20  91 
 19 6 -14 0
8 17 -5 0
7 -13 -12 0
11 -7 -10 0
1 14 -17 0
-13 3 9 0
3 1 -7 0
11 15 10 0
-3 -12 15 0
10 15 1 0
2 15 -9 0
-12 -13 -18 0
-8 -15 -4 0
13 7 -8 0
-15 16 2 0
11 10 13 0
13 -14 -2 0
18 8 -20 0
1 -10 7 0
5 -11 3 0
-13 2 18 0
%
0

16 33 65 49 53 39 11 84 69 93 63 95 83 35 12 25 43 24 94 60
